<number of tasks>
50

<cycle time>
1000

<order strength>
0.604


<task times>
1 417
2 382
3 552
4 257
5 582
6 503
7 657
8 297
9 410
10 504
11 375
12 569
13 496
14 696
15 447
16 368
17 720
18 598
19 422
20 825
21 583
22 377
23 545
24 438
25 351
26 583
27 445
28 448
29 502
30 436
31 463
32 466
33 351
34 698
35 750
36 517
37 405
38 530
39 458
40 668
41 365
42 434
43 594
44 620
45 600
46 462
47 722
48 346
49 339
50 429

<precedence relations>
1,6
2,7
3,8
3,9
4,8
4,9
5,8
5,9
6,11
7,12
8,10
8,13
8,14
9,13
9,14
10,16
11,15
12,17
13,17
14,17
15,18
16,20
17,19
17,20
17,21
18,23
19,22
19,23
19,24
19,25
20,24
20,25
21,24
21,29
21,32
22,26
23,27
23,28
23,29
23,33
24,28
24,30
25,29
25,46
26,32
27,31
28,34
29,35
30,33
30,35
30,40
31,37
32,36
32,38
32,39
32,46
33,39
34,39
34,40
35,49
36,41
37,42
38,43
39,44
39,45
40,46
41,48
42,48
43,49
44,47
45,48
45,49
45,50

<end>
